p cnf 19 9
a 1 2 3 4 5 0
e 6 0
a 7 0
e 8 0
a 9 0
e 10 11 0
a 12 0
e 13 14 15 0
a 16 0
e 17 18 19 0
-6 -16 9 19 -14 0
-17 1 16 18 0
-7 6 0
12 -2 16 15 0
-9 17 13 0
-5 11 1 -18 9 0
2 9 0
-10 18 -11 -14 6 0
-11 -6 12 5 8 0
